Traveling Salesman Problem/TSP_generados/Aleatorio1621103592_16.tsp
NAME: Aleatorio1621103592_16.tsp
COMMENT: Randomly generated scenario
TYPE: TSP
DIMENSION: 16
EDGE_WEIGHT_TYPE: ATT
NODE_COORD_SECTION
1 47.75 45.27
2 4.26 39.45
3 12.23 27.04
4 22.89 4.13
5 1.66 24.5
6 29.35 5.52
7 20.09 39.57
8 19.35 29.25
9 39.25 1.69
10 17.2 42.07
11 40.85 11.3
12 27.55 44.39
13 41.83 1.93
14 32.71 15.05
15 28.7 10.23
16 34.13 34.1
