Traveling Salesman Problem/TSP_generados/Aleatorio1621103592_16.opt.tour
NAME: Aleatorio1621103592_16.opt.tour
COMMENT: Optimal solution for Aleatorio1621103592_16 (184.15796519317348)
TYPE: TOUR
DIMENSION: 16
TOUR_SECTION
1 12 7 10 2 5 3 8 15 4 6 9 13 11 14 16
-1
EOF
